4 10
77 108 92 112 
0 64 26 41 44 25 63 2 81 93 24 16 69 34 7 74 12 5 93 10 11 2
1 9 26 17 61 34 3 42 38 26 38 69 36 59 97 33 99 15 97 94 61 1
2 6 24 15 95 15 65 24 36 6 56 48 56 17 4 29 55 31 64 22 15 2
3 94 9 71 64 47 10 32 65 2 33 80 3 18 36 32 57 49 94 53 72 4
4 64 34 32 85 1 35 77 78 24 65 97 83 42 1 68 39 42 94 72 62 2
5 11 60 12 6 20 61 29 7 12 13 86 79 5 65 20 18 46 87 91 31 3
6 48 39 4 66 53 92 1 19 92 70 18 16 96 87 36 85 94 85 27 16 1
7 2 70 42 8 75 47 15 85 93 32 92 33 89 70 22 70 34 78 100 85 1
8 69 75 21 42 74 8 34 83 84 10 63 77 72 79 92 46 57 63 43 82 4
9 21 24 89 71 50 25 18 72 68 89 84 39 91 20 22 36 100 19 17 17 3
